12 32 3 10
13 6 16 1 6 16 11 13 2 11 11 4 10 6 11 13 19 2 16 1 6 20 16 5 7 10 10 1 2 16 13 16 
6.17 10.04 12.25 15.73 6.28 8.51 15.44 9.15 14.13 1.5 4.77 12.55 9.96 15.8 15.93 2.19 6.57 0.09 7.73 8.13 5.77 12.46 1.96 3.14 11.24 8.82 10.56 14.31 13.14 15.58 6.34 8.48 
1.13 4.28 5.22 13.82 1.83 7.2 9.33 1.8 12.34 4.37 10.79 8.93 8.31 12.31 12.06 9.52 0.19 13.14 9.91 5.64 12.1 2.98 11.15 13.9 0.83 14.52 10.21 2.51 11.47 6.21 12.47 0.92 
10.19 9.94 8.36 3.21 9.19 7.55 5.89 6.92 6.11 10.89 2.12 6.08 13.93 3.18 13.67 8.07 9.77 12.68 6.5 7.35 8.94 0.54 5.67 9.87 2.14 5.04 15.17 12.73 9.59 10.66 7 12.39 
8 8 8 8 8 8 8 8 8 8 8 8 8 8 8 8 8 8 8 8 8 8 8 8 8 8 8 8 8 8 8 8 
4.26 5.48 14.49 2.01 15.69 12.97 12.93 3.7 13.15 3.39 8.93 1.23 6.92 9.86 14.94 12.42 8.63 1.49 9.58 7.72 1.61 5.61 11.38 3.21 1.64 14.46 6.63 4.57 9.6 5.09 3.16 1.95 
8.53 7.67 11.31 1.08 12.55 3.14 8.8 13.94 10.56 4.39 1.62 0.75 3.1 3.73 7 11.96 1.36 2.56 13.89 1.59 11.73 8.44 12.59 0.39 11.68 15.5 13.31 7.97 10.49 6.46 3.96 10.88 
14.22 7.73 9.9 6.84 2.34 6.04 12.94 4.72 8.3 7.22 10.86 15.09 11.91 11.82 15.39 13.18 8.7 1.22 1.04 12.85 14.01 3.55 13.43 0.58 9.4 7.92 0.99 0.48 1.21 9.48 9.64 1.43 
13.01 4.56 10.23 15.79 10.02 4.83 14.05 3.64 7.63 8.13 10.81 8.28 3.63 15.36 8.12 13.97 12.29 3.2 6.18 3.89 7.03 11.97 3.66 0.85 1.54 9.33 14.7 5.61 13.24 8.75 8.77 9.14 
15.77 1.47 14.3 4.34 1.5 14.52 6.29 9.89 14.36 0.6 8.79 15.78 8.65 6.41 12.53 12.77 4.22 12.58 5.67 9.25 12.16 8.32 15.17 5.28 14.73 15.63 11.25 4.66 9.57 4.09 1.21 1.42 
8.87 7.64 3.98 7.8 11.59 4.34 3.05 2.21 2.56 2.13 10.51 13.81 9.24 5.46 6.27 0.21 11.82 6.8 13.97 0.07 3.32 0.55 6.7 6.09 15.19 3.57 9.98 15.15 6.87 2.82 5.12 6.31 
2.69 2.32 5.23 6.44 1.23 14.75 15.32 13.5 2.39 3.48 11.45 14.69 15.11 10.58 4.09 2.59 2.74 1.34 15.56 6.58 8.01 2.45 7.44 11.24 3.62 13.06 8.86 15.99 13.41 4.79 15.62 12.37 
15.3 5.48 5.21 1.48 8.91 11.74 11.18 1.32 7.23 7.37 14.42 10.6 2.67 11.84 9.02 15.4 10.44 6.8 4.53 6.19 2.54 5.62 12.24 9.09 15.59 0.83 15.67 5.06 14.57 10.22 0.2 7.29 
1 1 1 1 1 1 1 1 1 1 1 1 1 1 1 1 1 1 1 1 1 1 1 1 1 1 1 1 1 1 1 1 
1 1 1 1 1 1 1 1 1 1 1 1 1 1 1 1 1 1 1 1 1 1 1 1 1 1 1 1 1 1 1 1 
1 1 1 1 1 1 1 1 1 1 1 1 1 1 1 1 1 1 1 1 1 1 1 1 1 1 1 1 1 1 1 1 
1 1 1 1 1 1 1 1 1 1 1 1 1 1 1 1 1 1 1 1 1 1 1 1 1 1 1 1 1 1 1 1 
1 1 1 1 1 1 1 1 1 1 1 1 1 1 1 1 1 1 1 1 1 1 1 1 1 1 1 1 1 1 1 1 
1 1 1 1 1 1 1 1 1 1 1 1 1 1 1 1 1 1 1 1 1 1 1 1 1 1 1 1 1 1 1 1 
1 1 1 1 1 1 1 1 1 1 1 1 1 1 1 1 1 1 1 1 1 1 1 1 1 1 1 1 1 1 1 1 
1 1 1 1 1 1 1 1 1 1 1 1 1 1 1 1 1 1 1 1 1 1 1 1 1 1 1 1 1 1 1 1 
1 1 1 1 1 1 1 1 1 1 1 1 1 1 1 1 1 1 1 1 1 1 1 1 1 1 1 1 1 1 1 1 
1 1 1 1 1 1 1 1 1 1 1 1 1 1 1 1 1 1 1 1 1 1 1 1 1 1 1 1 1 1 1 1 
1 1 1 1 1 1 1 1 1 1 1 1 1 1 1 1 1 1 1 1 1 1 1 1 1 1 1 1 1 1 1 1 
1 1 1 1 1 1 1 1 1 1 1 1 1 1 1 1 1 1 1 1 1 1 1 1 1 1 1 1 1 1 1 1 
0.01 0.01 0.01 0.01 0.01 0.01 0.01 0.01 0.01 0.01 0.01 0.01 0.01 0.01 0.01 0.01 0.01 0.01 0.01 0.01 0.01 0.01 0.01 0.01 0.01 0.01 0.01 0.01 0.01 0.01 0.01 0.01 
0.02 0.02 0.02 0.02 0.02 0.02 0.02 0.02 0.02 0.02 0.02 0.02 0.02 0.02 0.02 0.02 0.02 0.02 0.02 0.02 0.02 0.02 0.02 0.02 0.02 0.02 0.02 0.02 0.02 0.02 0.02 0.02 
0.03 0.03 0.03 0.03 0.03 0.03 0.03 0.03 0.03 0.03 0.03 0.03 0.03 0.03 0.03 0.03 0.03 0.03 0.03 0.03 0.03 0.03 0.03 0.03 0.03 0.03 0.03 0.03 0.03 0.03 0.03 0.03 
0.04 0.04 0.04 0.04 0.04 0.04 0.04 0.04 0.04 0.04 0.04 0.04 0.04 0.04 0.04 0.04 0.04 0.04 0.04 0.04 0.04 0.04 0.04 0.04 0.04 0.04 0.04 0.04 0.04 0.04 0.04 0.04 
0.125 0.125 0.125 0.125 0.125 0.125 0.125 0.125 0.125 0.125 0.125 0.125 0.125 0.125 0.125 0.125 0.125 0.125 0.125 0.125 0.125 0.125 0.125 0.125 0.125 0.125 0.125 0.125 0.125 0.125 0.125 0.125 
0.25 0.25 0.25 0.25 0.25 0.25 0.25 0.25 0.25 0.25 0.25 0.25 0.25 0.25 0.25 0.25 0.25 0.25 0.25 0.25 0.25 0.25 0.25 0.25 0.25 0.25 0.25 0.25 0.25 0.25 0.25 0.25 
0.375 0.375 0.375 0.375 0.375 0.375 0.375 0.375 0.375 0.375 0.375 0.375 0.375 0.375 0.375 0.375 0.375 0.375 0.375 0.375 0.375 0.375 0.375 0.375 0.375 0.375 0.375 0.375 0.375 0.375 0.375 0.375 
0.5 0.5 0.5 0.5 0.5 0.5 0.5 0.5 0.5 0.5 0.5 0.5 0.5 0.5 0.5 0.5 0.5 0.5 0.5 0.5 0.5 0.5 0.5 0.5 0.5 0.5 0.5 0.5 0.5 0.5 0.5 0.5 
0.625 0.625 0.625 0.625 0.625 0.625 0.625 0.625 0.625 0.625 0.625 0.625 0.625 0.625 0.625 0.625 0.625 0.625 0.625 0.625 0.625 0.625 0.625 0.625 0.625 0.625 0.625 0.625 0.625 0.625 0.625 0.625 
0.75 0.75 0.75 0.75 0.75 0.75 0.75 0.75 0.75 0.75 0.75 0.75 0.75 0.75 0.75 0.75 0.75 0.75 0.75 0.75 0.75 0.75 0.75 0.75 0.75 0.75 0.75 0.75 0.75 0.75 0.75 0.75 
0.875 0.875 0.875 0.875 0.875 0.875 0.875 0.875 0.875 0.875 0.875 0.875 0.875 0.875 0.875 0.875 0.875 0.875 0.875 0.875 0.875 0.875 0.875 0.875 0.875 0.875 0.875 0.875 0.875 0.875 0.875 0.875 
1 1 1 1 1 1 1 1 1 1 1 1 1 1 1 1 1 1 1 1 1 1 1 1 1 1 1 1 1 1 1 1 
